Minimize
	value: tt

Subject to
tt + 1024 s_1_1 > 0.0
tt - t_1_1 - 1029.041581 s_1_1 + 5.041581 s_1_6 > -1006.617213
tt + 1024 s_2_1 > 0.0
tt - t_2_1 - 1029.640258 s_2_1 + 5.640258 s_2_6 > -1008.844867
tt + 1024 s_1_2 > 0.0
tt - t_1_2 - 1029.041581 s_1_2 + 5.041581 s_1_7 > -1004.436164
tt + 1024 s_2_2 > 0.0
tt - t_2_2 - 1029.640258 s_2_2 + 5.640258 s_2_7 > -1008.833978
tt + 1024 s_1_3 > 0.0
tt - t_1_3 - 1029.041581 s_1_3 + 5.041581 s_1_7 > -994.168617
tt + 1024 s_2_3 > 0.0
tt - t_2_3 - 1029.640258 s_2_3 + 5.640258 s_2_7 > -1003.194471
tt + 1024 s_1_4 > 0.0
tt - t_1_4 - 1034.083162 s_1_4 + 10.083162 s_1_3 > -1007.972539
tt + 1024 s_2_4 > 0.0
tt - t_2_4 - 1035.280517 s_2_4 + 11.280517 s_2_3 > -1010.317844
tt + 1024 s_1_5 > 0.0
tt - t_1_5 - 1039.124743 s_1_5 + 15.124743 s_1_6 > -1009.605838
tt + 1024 s_2_5 > 0.0
tt - t_2_5 - 1040.920775 s_2_5 + 16.920775 s_2_6 > -1012.635678
tt + 1024 s_1_6 > 0.0
tt - t_1_6 - 1024.000000 s_1_6 > -986.426000
tt + 1024 s_2_6 > 0.0
tt - t_2_6 - 1024.000000 s_2_6 > -1007.555811
tt + 1024 s_1_7 > 0.0
tt - t_1_7 - 1024.000000 s_1_7 > -986.349300
tt + 1024 s_2_7 > 0.0
tt - t_2_7 - 1024.000000 s_2_7 > -1007.842000
tt + 1024 s_1_8 > 0.0
tt - t_1_8 - 1087.019763 s_1_8 + 63.019763 s_1_3 > -1020.957700
tt + 1024 s_2_8 > 0.0
tt - t_2_8 - 1094.503231 s_2_8 + 70.503231 s_2_3 > -992.964000
s_1_1 + s_2_1  = 1
s_1_2 + s_2_2  = 1
s_1_3 + s_2_3  = 1
s_1_4 + s_2_4  = 1
s_1_5 + s_2_5  = 1
s_1_6 + s_2_6  = 1
s_1_7 + s_2_7  = 1
s_1_8 + s_2_8  = 1
s_1_1 + s_1_2 + 1024 r_1_1_2 >= 2
- s_1_1 - s_1_2 - 1024 r_1_1_2 >= -1025
t_1_1 - t_1_2 - 1024.000000 u_1_1_2 - 5.041581 s_1_2 + 5.041581 s_1_7 + 2048.000000 r_1_1_2 > -1004.436164
s_2_1 + s_2_2 + 1024 r_2_1_2 >= 2
- s_2_1 - s_2_2 - 1024 r_2_1_2 >= -1025
t_2_1 - t_2_2 - 1024.000000 u_2_1_2 - 5.640258 s_2_2 + 5.640258 s_2_7 + 2048.000000 r_2_1_2 > -1008.833978
s_1_1 + s_1_3 + 1024 r_1_1_3 >= 2
- s_1_1 - s_1_3 - 1024 r_1_1_3 >= -1025
t_1_1 - t_1_3 - 1024.000000 u_1_1_3 - 5.041581 s_1_3 + 5.041581 s_1_7 + 2048.000000 r_1_1_3 > -994.168617
s_2_1 + s_2_3 + 1024 r_2_1_3 >= 2
- s_2_1 - s_2_3 - 1024 r_2_1_3 >= -1025
t_2_1 - t_2_3 - 1024.000000 u_2_1_3 - 5.640258 s_2_3 + 5.640258 s_2_7 + 2048.000000 r_2_1_3 > -1003.194471
s_1_1 + s_1_4 + 1024 r_1_1_4 >= 2
- s_1_1 - s_1_4 - 1024 r_1_1_4 >= -1025
t_1_1 - t_1_4 - 1024.000000 u_1_1_4 - 5.041581 s_1_4 + 5.041581 s_1_3 + 2048.000000 r_1_1_4 > -1007.972539
s_2_1 + s_2_4 + 1024 r_2_1_4 >= 2
- s_2_1 - s_2_4 - 1024 r_2_1_4 >= -1025
t_2_1 - t_2_4 - 1024.000000 u_2_1_4 - 5.640258 s_2_4 + 5.640258 s_2_3 + 2048.000000 r_2_1_4 > -1010.317844
s_1_1 + s_1_5 + 1024 r_1_1_5 >= 2
- s_1_1 - s_1_5 - 1024 r_1_1_5 >= -1025
t_1_1 - t_1_5 - 1024.000000 u_1_1_5 - 7.562372 s_1_5 + 7.562372 s_1_6 + 2048.000000 r_1_1_5 > -1009.605838
s_2_1 + s_2_5 + 1024 r_2_1_5 >= 2
- s_2_1 - s_2_5 - 1024 r_2_1_5 >= -1025
t_2_1 - t_2_5 - 1024.000000 u_2_1_5 - 8.460388 s_2_5 + 8.460388 s_2_6 + 2048.000000 r_2_1_5 > -1012.635678
t_1_1 - t_1_6 - 1024.000000 s_1_6 > -986.426000
t_1_1 - t_2_6 - 1024.000000 s_2_6 > -1007.555811
t_2_1 - t_1_6 - 1024.000000 s_1_6 > -986.426000
t_2_1 - t_2_6 - 1024.000000 s_2_6 > -1007.555811
s_1_1 + s_1_7 + 1024 r_1_1_7 >= 2
- s_1_1 - s_1_7 - 1024 r_1_1_7 >= -1025
t_1_1 - t_1_7 - 1024.000000 u_1_1_7 + 2048.000000 r_1_1_7 > -986.349300
s_2_1 + s_2_7 + 1024 r_2_1_7 >= 2
- s_2_1 - s_2_7 - 1024 r_2_1_7 >= -1025
t_2_1 - t_2_7 - 1024.000000 u_2_1_7 + 2048.000000 r_2_1_7 > -1007.842000
t_1_8 - t_1_1 - 22.424368 s_1_1 + 5.041581 s_1_6 > 0.0
t_1_8 - t_2_1 - 20.795392 s_2_1 + 5.640258 s_2_6 > 0.0
t_2_8 - t_1_1 - 22.424368 s_1_1 + 5.041581 s_1_6 > 0.0
t_2_8 - t_2_1 - 20.795392 s_2_1 + 5.640258 s_2_6 > 0.0
s_1_2 + s_1_1 + 1024 r_1_1_2 >= 2
- s_1_2 - s_1_1 - 1024 r_1_1_2 >= -1025
t_1_2 - t_1_1 + 1024.000000 u_1_1_2 - 5.041581 s_1_1 + 5.041581 s_1_6 + 2048.000000 r_1_1_2 > 17.382787
s_2_2 + s_2_1 + 1024 r_2_1_2 >= 2
- s_2_2 - s_2_1 - 1024 r_2_1_2 >= -1025
t_2_2 - t_2_1 + 1024.000000 u_2_1_2 - 5.640258 s_2_1 + 5.640258 s_2_6 + 2048.000000 r_2_1_2 > 15.155133
s_1_2 + s_1_3 + 1024 r_1_2_3 >= 2
- s_1_2 - s_1_3 - 1024 r_1_2_3 >= -1025
t_1_2 - t_1_3 - 1024.000000 u_1_2_3 - 5.041581 s_1_3 + 5.041581 s_1_7 + 2048.000000 r_1_2_3 > -994.168617
s_2_2 + s_2_3 + 1024 r_2_2_3 >= 2
- s_2_2 - s_2_3 - 1024 r_2_2_3 >= -1025
t_2_2 - t_2_3 - 1024.000000 u_2_2_3 - 5.640258 s_2_3 + 5.640258 s_2_7 + 2048.000000 r_2_2_3 > -1003.194471
s_1_2 + s_1_4 + 1024 r_1_2_4 >= 2
- s_1_2 - s_1_4 - 1024 r_1_2_4 >= -1025
t_1_2 - t_1_4 - 1024.000000 u_1_2_4 - 5.041581 s_1_4 + 5.041581 s_1_3 + 2048.000000 r_1_2_4 > -1007.972539
s_2_2 + s_2_4 + 1024 r_2_2_4 >= 2
- s_2_2 - s_2_4 - 1024 r_2_2_4 >= -1025
t_2_2 - t_2_4 - 1024.000000 u_2_2_4 - 5.640258 s_2_4 + 5.640258 s_2_3 + 2048.000000 r_2_2_4 > -1010.317844
s_1_2 + s_1_5 + 1024 r_1_2_5 >= 2
- s_1_2 - s_1_5 - 1024 r_1_2_5 >= -1025
t_1_2 - t_1_5 - 1024.000000 u_1_2_5 - 7.562372 s_1_5 + 7.562372 s_1_6 + 2048.000000 r_1_2_5 > -1009.605838
s_2_2 + s_2_5 + 1024 r_2_2_5 >= 2
- s_2_2 - s_2_5 - 1024 r_2_2_5 >= -1025
t_2_2 - t_2_5 - 1024.000000 u_2_2_5 - 8.460388 s_2_5 + 8.460388 s_2_6 + 2048.000000 r_2_2_5 > -1012.635678
s_1_2 + s_1_6 + 1024 r_1_2_6 >= 2
- s_1_2 - s_1_6 - 1024 r_1_2_6 >= -1025
t_1_2 - t_1_6 - 1024.000000 u_1_2_6 + 2048.000000 r_1_2_6 > -986.426000
s_2_2 + s_2_6 + 1024 r_2_2_6 >= 2
- s_2_2 - s_2_6 - 1024 r_2_2_6 >= -1025
t_2_2 - t_2_6 - 1024.000000 u_2_2_6 + 2048.000000 r_2_2_6 > -1007.555811
t_1_2 - t_1_7 - 1024.000000 s_1_7 > -986.349300
t_1_2 - t_2_7 - 1024.000000 s_2_7 > -1007.842000
t_2_2 - t_1_7 - 1024.000000 s_1_7 > -986.349300
t_2_2 - t_2_7 - 1024.000000 s_2_7 > -1007.842000
t_1_8 - t_1_2 - 24.605417 s_1_2 + 5.041581 s_1_7 > 0.0
t_1_8 - t_2_2 - 20.806281 s_2_2 + 5.640258 s_2_7 > 0.0
t_2_8 - t_1_2 - 24.605417 s_1_2 + 5.041581 s_1_7 > 0.0
t_2_8 - t_2_2 - 20.806281 s_2_2 + 5.640258 s_2_7 > 0.0
s_1_3 + s_1_1 + 1024 r_1_1_3 >= 2
- s_1_3 - s_1_1 - 1024 r_1_1_3 >= -1025
t_1_3 - t_1_1 + 1024.000000 u_1_1_3 - 5.041581 s_1_1 + 5.041581 s_1_6 + 2048.000000 r_1_1_3 > 17.382787
s_2_3 + s_2_1 + 1024 r_2_1_3 >= 2
- s_2_3 - s_2_1 - 1024 r_2_1_3 >= -1025
t_2_3 - t_2_1 + 1024.000000 u_2_1_3 - 5.640258 s_2_1 + 5.640258 s_2_6 + 2048.000000 r_2_1_3 > 15.155133
s_1_3 + s_1_2 + 1024 r_1_2_3 >= 2
- s_1_3 - s_1_2 - 1024 r_1_2_3 >= -1025
t_1_3 - t_1_2 + 1024.000000 u_1_2_3 - 5.041581 s_1_2 + 5.041581 s_1_7 + 2048.000000 r_1_2_3 > 19.563836
s_2_3 + s_2_2 + 1024 r_2_2_3 >= 2
- s_2_3 - s_2_2 - 1024 r_2_2_3 >= -1025
t_2_3 - t_2_2 + 1024.000000 u_2_2_3 - 5.640258 s_2_2 + 5.640258 s_2_7 + 2048.000000 r_2_2_3 > 15.166022
t_1_4 - t_1_3 - 34.872964 s_1_3 + 5.041581 s_1_7 > 0.0
t_1_4 - t_2_3 - 26.445787 s_2_3 + 5.640258 s_2_7 > 0.0
t_2_4 - t_1_3 - 34.872964 s_1_3 + 5.041581 s_1_7 > 0.0
t_2_4 - t_2_3 - 26.445787 s_2_3 + 5.640258 s_2_7 > 0.0
s_1_3 + s_1_5 + 1024 r_1_3_5 >= 2
- s_1_3 - s_1_5 - 1024 r_1_3_5 >= -1025
t_1_3 - t_1_5 - 1024.000000 u_1_3_5 - 7.562372 s_1_5 + 7.562372 s_1_6 + 2048.000000 r_1_3_5 > -1009.605838
s_2_3 + s_2_5 + 1024 r_2_3_5 >= 2
- s_2_3 - s_2_5 - 1024 r_2_3_5 >= -1025
t_2_3 - t_2_5 - 1024.000000 u_2_3_5 - 8.460388 s_2_5 + 8.460388 s_2_6 + 2048.000000 r_2_3_5 > -1012.635678
s_1_3 + s_1_6 + 1024 r_1_3_6 >= 2
- s_1_3 - s_1_6 - 1024 r_1_3_6 >= -1025
t_1_3 - t_1_6 - 1024.000000 u_1_3_6 + 2048.000000 r_1_3_6 > -986.426000
s_2_3 + s_2_6 + 1024 r_2_3_6 >= 2
- s_2_3 - s_2_6 - 1024 r_2_3_6 >= -1025
t_2_3 - t_2_6 - 1024.000000 u_2_3_6 + 2048.000000 r_2_3_6 > -1007.555811
t_1_3 - t_1_7 - 1024.000000 s_1_7 > -986.349300
t_1_3 - t_2_7 - 1024.000000 s_2_7 > -1007.842000
t_2_3 - t_1_7 - 1024.000000 s_1_7 > -986.349300
t_2_3 - t_2_7 - 1024.000000 s_2_7 > -1007.842000
t_1_8 - t_1_3 - 34.872964 s_1_3 + 5.041581 s_1_7 > 0.0
t_1_8 - t_2_3 - 26.445787 s_2_3 + 5.640258 s_2_7 > 0.0
t_2_8 - t_1_3 - 34.872964 s_1_3 + 5.041581 s_1_7 > 0.0
t_2_8 - t_2_3 - 26.445787 s_2_3 + 5.640258 s_2_7 > 0.0
s_1_4 + s_1_1 + 1024 r_1_1_4 >= 2
- s_1_4 - s_1_1 - 1024 r_1_1_4 >= -1025
t_1_4 - t_1_1 + 1024.000000 u_1_1_4 - 5.041581 s_1_1 + 5.041581 s_1_6 + 2048.000000 r_1_1_4 > 17.382787
s_2_4 + s_2_1 + 1024 r_2_1_4 >= 2
- s_2_4 - s_2_1 - 1024 r_2_1_4 >= -1025
t_2_4 - t_2_1 + 1024.000000 u_2_1_4 - 5.640258 s_2_1 + 5.640258 s_2_6 + 2048.000000 r_2_1_4 > 15.155133
s_1_4 + s_1_2 + 1024 r_1_2_4 >= 2
- s_1_4 - s_1_2 - 1024 r_1_2_4 >= -1025
t_1_4 - t_1_2 + 1024.000000 u_1_2_4 - 5.041581 s_1_2 + 5.041581 s_1_7 + 2048.000000 r_1_2_4 > 19.563836
s_2_4 + s_2_2 + 1024 r_2_2_4 >= 2
- s_2_4 - s_2_2 - 1024 r_2_2_4 >= -1025
t_2_4 - t_2_2 + 1024.000000 u_2_2_4 - 5.640258 s_2_2 + 5.640258 s_2_7 + 2048.000000 r_2_2_4 > 15.166022
s_1_4 + s_1_5 + 1024 r_1_4_5 >= 2
- s_1_4 - s_1_5 - 1024 r_1_4_5 >= -1025
t_1_4 - t_1_5 - 1024.000000 u_1_4_5 - 7.562372 s_1_5 + 7.562372 s_1_6 + 2048.000000 r_1_4_5 > -1009.605838
s_2_4 + s_2_5 + 1024 r_2_4_5 >= 2
- s_2_4 - s_2_5 - 1024 r_2_4_5 >= -1025
t_2_4 - t_2_5 - 1024.000000 u_2_4_5 - 8.460388 s_2_5 + 8.460388 s_2_6 + 2048.000000 r_2_4_5 > -1012.635678
s_1_4 + s_1_6 + 1024 r_1_4_6 >= 2
- s_1_4 - s_1_6 - 1024 r_1_4_6 >= -1025
t_1_4 - t_1_6 - 1024.000000 u_1_4_6 + 2048.000000 r_1_4_6 > -986.426000
s_2_4 + s_2_6 + 1024 r_2_4_6 >= 2
- s_2_4 - s_2_6 - 1024 r_2_4_6 >= -1025
t_2_4 - t_2_6 - 1024.000000 u_2_4_6 + 2048.000000 r_2_4_6 > -1007.555811
t_1_4 - t_1_7 - 1024.000000 s_1_7 > -986.349300
t_1_4 - t_2_7 - 1024.000000 s_2_7 > -1007.842000
t_2_4 - t_1_7 - 1024.000000 s_1_7 > -986.349300
t_2_4 - t_2_7 - 1024.000000 s_2_7 > -1007.842000
t_1_8 - t_1_4 - 21.069042 s_1_4 + 5.041581 s_1_3 > 0.0
t_1_8 - t_2_4 - 19.322414 s_2_4 + 5.640258 s_2_3 > 0.0
t_2_8 - t_1_4 - 21.069042 s_1_4 + 5.041581 s_1_3 > 0.0
t_2_8 - t_2_4 - 19.322414 s_2_4 + 5.640258 s_2_3 > 0.0
s_1_5 + s_1_1 + 1024 r_1_1_5 >= 2
- s_1_5 - s_1_1 - 1024 r_1_1_5 >= -1025
t_1_5 - t_1_1 + 1024.000000 u_1_1_5 - 5.041581 s_1_1 + 5.041581 s_1_6 + 2048.000000 r_1_1_5 > 17.382787
s_2_5 + s_2_1 + 1024 r_2_1_5 >= 2
- s_2_5 - s_2_1 - 1024 r_2_1_5 >= -1025
t_2_5 - t_2_1 + 1024.000000 u_2_1_5 - 5.640258 s_2_1 + 5.640258 s_2_6 + 2048.000000 r_2_1_5 > 15.155133
s_1_5 + s_1_2 + 1024 r_1_2_5 >= 2
- s_1_5 - s_1_2 - 1024 r_1_2_5 >= -1025
t_1_5 - t_1_2 + 1024.000000 u_1_2_5 - 5.041581 s_1_2 + 5.041581 s_1_7 + 2048.000000 r_1_2_5 > 19.563836
s_2_5 + s_2_2 + 1024 r_2_2_5 >= 2
- s_2_5 - s_2_2 - 1024 r_2_2_5 >= -1025
t_2_5 - t_2_2 + 1024.000000 u_2_2_5 - 5.640258 s_2_2 + 5.640258 s_2_7 + 2048.000000 r_2_2_5 > 15.166022
s_1_5 + s_1_3 + 1024 r_1_3_5 >= 2
- s_1_5 - s_1_3 - 1024 r_1_3_5 >= -1025
t_1_5 - t_1_3 + 1024.000000 u_1_3_5 - 5.041581 s_1_3 + 5.041581 s_1_7 + 2048.000000 r_1_3_5 > 29.831383
s_2_5 + s_2_3 + 1024 r_2_3_5 >= 2
- s_2_5 - s_2_3 - 1024 r_2_3_5 >= -1025
t_2_5 - t_2_3 + 1024.000000 u_2_3_5 - 5.640258 s_2_3 + 5.640258 s_2_7 + 2048.000000 r_2_3_5 > 20.805529
s_1_5 + s_1_4 + 1024 r_1_4_5 >= 2
- s_1_5 - s_1_4 - 1024 r_1_4_5 >= -1025
t_1_5 - t_1_4 + 1024.000000 u_1_4_5 - 5.041581 s_1_4 + 5.041581 s_1_3 + 2048.000000 r_1_4_5 > 16.027461
s_2_5 + s_2_4 + 1024 r_2_4_5 >= 2
- s_2_5 - s_2_4 - 1024 r_2_4_5 >= -1025
t_2_5 - t_2_4 + 1024.000000 u_2_4_5 - 5.640258 s_2_4 + 5.640258 s_2_3 + 2048.000000 r_2_4_5 > 13.682156
t_1_5 - t_1_6 - 1024.000000 s_1_6 > -986.426000
t_1_5 - t_2_6 - 1024.000000 s_2_6 > -1007.555811
t_2_5 - t_1_6 - 1024.000000 s_1_6 > -986.426000
t_2_5 - t_2_6 - 1024.000000 s_2_6 > -1007.555811
t_1_5 - t_1_7 - 1024.000000 s_1_7 > -986.349300
t_1_5 - t_2_7 - 1024.000000 s_2_7 > -1007.842000
t_2_5 - t_1_7 - 1024.000000 s_1_7 > -986.349300
t_2_5 - t_2_7 - 1024.000000 s_2_7 > -1007.842000
t_1_8 - t_1_5 - 21.956533 s_1_5 + 7.562372 s_1_6 > 0.0
t_1_8 - t_2_5 - 19.824710 s_2_5 + 8.460388 s_2_6 > 0.0
t_2_8 - t_1_5 - 21.956533 s_1_5 + 7.562372 s_1_6 > 0.0
t_2_8 - t_2_5 - 19.824710 s_2_5 + 8.460388 s_2_6 > 0.0
s_1_6 + s_1_2 + 1024 r_1_2_6 >= 2
- s_1_6 - s_1_2 - 1024 r_1_2_6 >= -1025
t_1_6 - t_1_2 + 1024.000000 u_1_2_6 - 5.041581 s_1_2 + 5.041581 s_1_7 + 2048.000000 r_1_2_6 > 19.563836
s_2_6 + s_2_2 + 1024 r_2_2_6 >= 2
- s_2_6 - s_2_2 - 1024 r_2_2_6 >= -1025
t_2_6 - t_2_2 + 1024.000000 u_2_2_6 - 5.640258 s_2_2 + 5.640258 s_2_7 + 2048.000000 r_2_2_6 > 15.166022
s_1_6 + s_1_3 + 1024 r_1_3_6 >= 2
- s_1_6 - s_1_3 - 1024 r_1_3_6 >= -1025
t_1_6 - t_1_3 + 1024.000000 u_1_3_6 - 5.041581 s_1_3 + 5.041581 s_1_7 + 2048.000000 r_1_3_6 > 29.831383
s_2_6 + s_2_3 + 1024 r_2_3_6 >= 2
- s_2_6 - s_2_3 - 1024 r_2_3_6 >= -1025
t_2_6 - t_2_3 + 1024.000000 u_2_3_6 - 5.640258 s_2_3 + 5.640258 s_2_7 + 2048.000000 r_2_3_6 > 20.805529
s_1_6 + s_1_4 + 1024 r_1_4_6 >= 2
- s_1_6 - s_1_4 - 1024 r_1_4_6 >= -1025
t_1_6 - t_1_4 + 1024.000000 u_1_4_6 - 5.041581 s_1_4 + 5.041581 s_1_3 + 2048.000000 r_1_4_6 > 16.027461
s_2_6 + s_2_4 + 1024 r_2_4_6 >= 2
- s_2_6 - s_2_4 - 1024 r_2_4_6 >= -1025
t_2_6 - t_2_4 + 1024.000000 u_2_4_6 - 5.640258 s_2_4 + 5.640258 s_2_3 + 2048.000000 r_2_4_6 > 13.682156
s_1_6 + s_1_7 + 1024 r_1_6_7 >= 2
- s_1_6 - s_1_7 - 1024 r_1_6_7 >= -1025
t_1_6 - t_1_7 - 1024.000000 u_1_6_7 + 2048.000000 r_1_6_7 > -986.349300
s_2_6 + s_2_7 + 1024 r_2_6_7 >= 2
- s_2_6 - s_2_7 - 1024 r_2_6_7 >= -1025
t_2_6 - t_2_7 - 1024.000000 u_2_6_7 + 2048.000000 r_2_6_7 > -1007.842000
s_1_7 + s_1_1 + 1024 r_1_1_7 >= 2
- s_1_7 - s_1_1 - 1024 r_1_1_7 >= -1025
t_1_7 - t_1_1 + 1024.000000 u_1_1_7 - 5.041581 s_1_1 + 5.041581 s_1_6 + 2048.000000 r_1_1_7 > 17.382787
s_2_7 + s_2_1 + 1024 r_2_1_7 >= 2
- s_2_7 - s_2_1 - 1024 r_2_1_7 >= -1025
t_2_7 - t_2_1 + 1024.000000 u_2_1_7 - 5.640258 s_2_1 + 5.640258 s_2_6 + 2048.000000 r_2_1_7 > 15.155133
s_1_7 + s_1_6 + 1024 r_1_6_7 >= 2
- s_1_7 - s_1_6 - 1024 r_1_6_7 >= -1025
t_1_7 - t_1_6 + 1024.000000 u_1_6_7 + 2048.000000 r_1_6_7 > 37.574000
s_2_7 + s_2_6 + 1024 r_2_6_7 >= 2
- s_2_7 - s_2_6 - 1024 r_2_6_7 >= -1025
t_2_7 - t_2_6 + 1024.000000 u_2_6_7 + 2048.000000 r_2_6_7 > 16.444189
Binary
s_1_1
s_2_1
s_1_2
s_2_2
s_1_3
s_2_3
s_1_4
s_2_4
s_1_5
s_2_5
s_1_6
s_2_6
s_1_7
s_2_7
s_1_8
s_2_8
u_1_1_2
r_1_1_2
u_2_1_2
r_2_1_2
u_1_1_3
r_1_1_3
u_2_1_3
r_2_1_3
u_1_1_4
r_1_1_4
u_2_1_4
r_2_1_4
u_1_1_5
r_1_1_5
u_2_1_5
r_2_1_5
u_1_1_7
r_1_1_7
u_2_1_7
r_2_1_7
u_1_2_3
r_1_2_3
u_2_2_3
r_2_2_3
u_1_2_4
r_1_2_4
u_2_2_4
r_2_2_4
u_1_2_5
r_1_2_5
u_2_2_5
r_2_2_5
u_1_2_6
r_1_2_6
u_2_2_6
r_2_2_6
u_1_3_5
r_1_3_5
u_2_3_5
r_2_3_5
u_1_3_6
r_1_3_6
u_2_3_6
r_2_3_6
u_1_4_5
r_1_4_5
u_2_4_5
r_2_4_5
u_1_4_6
r_1_4_6
u_2_4_6
r_2_4_6
u_1_6_7
r_1_6_7
u_2_6_7
r_2_6_7

End
